T = 15;
P = 2;
Exec = [
[760,760],
[640,540],
[640,560],
[890,600],
[580,580],
[980,560],
[880,570],
[820,790],
[800,650],
[830,660],
[530,500],
[960,570],
[720,620],
[660,940],
[700,860],
];
E = 28;
Edges = [
<1,2>,
<1,3>,
<1,4>,
<1,5>,
<1,6>,
<2,7>,
<2,8>,
<3,10>,
<4,10>,
<4,9>,
<4,8>,
<5,10>,
<5,9>,
<6,8>,
<7,13>,
<7,14>,
<8,13>,
<8,11>,
<9,11>,
<9,12>,
<9,13>,
<10,11>,
<10,14>,
<10,13>,
<11,15>,
<12,15>,
<13,15>,
<14,15>,
];
StartAfter = [
{2,3,4,5,6,7,8,9,10,11,12,13,14,15,}
{7,8,11,13,14,15,}
{10,11,13,14,15,}
{8,9,10,11,12,13,14,15,}
{9,10,11,12,13,14,15,}
{8,11,13,15,}
{13,14,15,}
{11,13,15,}
{11,12,13,15,}
{11,13,14,15,}
{15,}
{15,}
{15,}
{15,}
{}
];
V = 15;
VarS = [20,25,20,22,26,25,20,23,22,23,20,21,20,22,20];
VarR = {
<1,2,20,2,1>,
<11,1,20,2,2>,
<10,2,28,2,2>,
<8,2,23,1,2>,
<11,3,23,1,3>,
<4,1,29,2,3>,
<6,3,23,1,4>,
<4,1,25,2,5>,
<7,1,25,2,5>,
<10,3,20,2,5>,
<11,1,27,2,6>,
<10,1,26,2,6>,
<5,2,26,2,7>,
<9,1,30,2,7>,
<8,2,29,1,7>,
<12,2,22,1,8>,
<13,3,22,1,9>,
<8,1,28,1,9>,
<6,2,21,2,10>,
<8,3,27,1,11>,
<14,3,25,1,11>,
<5,2,23,1,11>,
<13,1,27,1,12>,
<14,1,23,1,12>,
<2,1,24,2,12>,
<9,3,20,2,13>,
<1,3,30,2,13>,
<13,2,26,1,13>,
<6,2,26,1,14>,
<11,2,22,2,14>,
<13,2,24,1,14>,
<2,1,30,1,15>,
<9,1,25,2,15>,
<7,2,27,1,15>,
};
SPMS = [150,150,];
LLB = [0,630,630,630,630,630,1116,1027,1112,1112,1647,1647,1711,1630,2074];
SLB = [630,1116,1190,1176,1112,1027,1607,1604,1647,1630,1987,2173,2138,2192,2774];
LUB = [2644,2103,2118,2104,2040,2014,1618,1617,1575,1558,1040,1226,1127,1262,700];
SUB = [2014,1617,1558,1558,1558,1617,1127,1040,1040,1040,700,700,700,700,0];
UB = 5079;
